CUSTOMERS : 10
VEHICLES : 3
0 255 249 95 107 181 166 220 97 480 391 
259 0 222 91 96 299 359 337 34 478 404 
478 78 0 473 128 375 106 498 248 358 475 
83 462 376 0 22 180 110 384 67 24 276 
21 440 20 18 0 237 390 199 450 387 350 
433 400 483 186 34 0 394 240 73 121 105 
232 211 354 135 345 171 0 208 467 456 3 
393 277 311 112 248 342 111 0 164 295 66 
205 119 131 433 159 376 263 23 0 315 145 
190 45 216 57 259 153 426 408 33 0 398 
454 108 133 22 441 64 202 216 132 382 0 
